10
0 12 10 60 36 94 53 17 60 91 
96 0 31 1 99 3 15 97 72 76 
29 84 0 9 43 37 52 38 70 35 
90 25 61 0 51 95 77 88 25 78 
64 66 42 43 0 6 97 23 85 63 
35 1 95 37 34 0 50 100 72 4 
49 87 86 32 28 85 0 79 45 50 
91 63 20 95 2 37 16 0 24 30 
12 74 98 97 44 57 23 39 0 56 
43 66 51 25 64 71 31 25 99 0 
